Copyright (C) 2013-2015, Filipe Brandao
Build (method = -2)
  #dp: 820
  Step-3' Graph: 55 vertices and 366 arcs (0.00s)
  Step-4' Graph: 37 vertices and 330 arcs (0.00s)
  #V4/#V3 = 0.67
  #A4/#A3 = 0.90
Ready! (0.00s)
Optimize a model with 84 rows, 331 columns and 923 nonzeros
Found heuristic solution: objective 36
Presolve removed 35 rows and 44 columns
Presolve time: 0.00s
Presolved: 49 rows, 287 columns, 761 nonzeros
Variable types: 0 continuous, 287 integer (214 binary)
Optimize a model with 49 rows, 287 columns and 761 nonzeros
Presolved: 49 rows, 287 columns, 761 nonzeros

Root barrier log...

Ordering time: 0.00s

Barrier statistics:
 AA' NZ     : 3.610e+02
 Factor NZ  : 8.170e+02
 Factor Ops : 1.582e+04 (less than 1 second per iteration)
 Threads    : 1

                  Objective                Residual
Iter       Primal          Dual         Primal    Dual     Compl     Time
   0   3.51179986e+02 -4.02106781e+02  6.68e+02 2.06e-01  5.15e+00     0s
   1   9.58125680e+01 -1.26072485e+02  1.02e+02 5.27e-16  8.98e-01     0s
   2   4.22181718e+01 -9.40343355e+00  8.33e+00 3.33e-16  1.22e-01     0s
   3   3.20802151e+01  1.98886222e+01  7.75e-01 1.22e-15  2.27e-02     0s
   4   2.84352674e+01  2.36189490e+01  1.69e-01 5.27e-16  8.64e-03     0s
   5   2.72479419e+01  2.66083928e+01  4.16e-02 3.99e-16  1.16e-03     0s
   6   2.70063988e+01  2.69792908e+01  2.90e-03 3.55e-16  5.18e-05     0s
   7   2.70000054e+01  2.69999985e+01  3.85e-07 3.57e-16  1.27e-08     0s
   8   2.70000000e+01  2.70000000e+01  1.35e-12 5.55e-16  1.27e-11     0s

Barrier solved model in 8 iterations and 0.00 seconds
Optimal objective 2.70000000e+01


Root relaxation: objective 2.700000e+01, 129 iterations, 0.00 seconds

    Nodes    |    Current Node    |     Objective Bounds      |     Work
 Expl Unexpl |  Obj  Depth IntInf | Incumbent    BestBd   Gap | It/Node Time

*    0     0               0      27.0000000   27.00000  0.00%     -    0s

Explored 0 nodes (129 simplex iterations) in 0.01 seconds
Thread count was 1 (of 4 available processors)

Optimal solution found (tolerance 0.00e+00)
Best objective 2.700000000000e+01, best bound 2.700000000000e+01, gap 0.0%
Preprocessing time: 0.00 seconds
Gurobi run time: 0.01 seconds
Total run time: 0.01 seconds
Objective: 27
Solution:
1 x [i=1]
1 x [i=2]
1 x [i=3]
1 x [i=4, i=47]
1 x [i=5, i=46]
1 x [i=6, i=44]
1 x [i=7, i=45]
1 x [i=8, i=41]
1 x [i=9, i=40]
1 x [i=10, i=39]
1 x [i=11, i=35]
1 x [i=12, i=38]
1 x [i=13, i=42]
1 x [i=14, i=32]
1 x [i=15, i=33]
1 x [i=16, i=34]
1 x [i=17, i=42]
1 x [i=18, i=31]
1 x [i=19, i=43]
1 x [i=20]
1 x [i=21, i=28]
2 x [i=22, i=36]
1 x [i=23, i=27]
1 x [i=24, i=30]
1 x [i=25, i=29]
1 x [i=26, i=37]
